90
74
163
75
65
163
152
110
151
143
140
168
103
178
92
196
155
145
101
177
103
93
184
135
82
142
112
67
210
119
148
194
121
49
157
63
33
149
135
138
172
173
81
108
152
190
196
83
52
122
83
179
164
43
33
175
89
131
211
89
169
116
38
92
65
120
124
91
124
179
188
147
140
99
85
176
121
163
78
168
202
72
115
108
45
157
158
86
89
67
114
140
85
123
203
132
133
84
98
178
128
176
73
93
131
77
159
55
167
150
158
170
50
74
88
155
82
175
158
88
155
62
190
79
137
113
148
129
89
125
86
88
110
52
193
66
112
123
174
149
68
97
136
56
148
197
163
58
172
92
68
115
31
50
134
142
98
76
109
109
114
50
107
51
76
103
83
143
174
119
144
169
166
168
89
80
65
136
117
198
209
167
206
142
186
64
167
110
66
180
168
119
145
149
105
113
59
100
147
120